nK = 837;
nT = 4;
nI = 7;
L = 35;
TT = 178;
np = 1;
nc = 3;
b = [52, 67, 51, 26, 59, 63, 26];
d = [102, 121, 85, 81, 112, 140, 44];
m = [1.5, 1, 1.3, 1.2, 2.5, 2.2, 1.6];
pt = [0.22, 0.24, 0.2, 0.23];
st = [12.54, 12.72, 10.6, 13.8];
arc = {<1, 0, 1, 1, 0, 0, 0, [1, 1, 1, 1]>, <2, 1, 2, 1, 0, 0, 0, [1, 1, 1, 1]>, <3, 2, 3, 1, 0, 0, 0, [1, 1, 1, 1]>, <4, 3, 4, 1, 0, 0, 0, [1, 1, 1, 1]>, <5, 4, 5, 1, 0, 0, 0, [1, 1, 1, 1]>, <6, 5, 6, 1, 0, 0, 0, [1, 1, 1, 1]>, <7, 6, 7, 1, 0, 0, 0, [1, 1, 1, 1]>, <8, 7, 8, 1, 0, 0, 0, [1, 1, 1, 1]>, <9, 8, 9, 1, 0, 0, 0, [1, 1, 1, 1]>, <10, 9, 10, 1, 0, 0, 0, [1, 1, 1, 1]>, <11, 10, 11, 1, 0, 0, 0, [1, 1, 1, 1]>, <12, 11, 12, 1, 0, 0, 0, [1, 1, 1, 1]>, <13, 12, 13, 1, 0, 0, 0, [1, 1, 1, 1]>, <14, 13, 14, 1, 0, 0, 0, [1, 1, 1, 1]>, <15, 14, 15, 1, 0, 0, 0, [1, 1, 1, 1]>, <16, 15, 16, 1, 0, 0, 0, [1, 1, 1, 1]>, <17, 16, 17, 1, 0, 0, 0, [1, 1, 1, 1]>, <18, 17, 18, 1, 0, 0, 0, [1, 1, 1, 1]>, <19, 18, 19, 1, 0, 0, 0, [1, 1, 1, 1]>, <20, 19, 20, 1, 0, 0, 0, [1, 1, 1, 1]>, <21, 20, 21, 1, 0, 0, 0, [1, 1, 1, 1]>, <22, 21, 22, 1, 0, 0, 0, [1, 1, 1, 1]>, <23, 22, 23, 1, 0, 0, 0, [1, 1, 1, 1]>, <24, 23, 24, 1, 0, 0, 0, [1, 1, 1, 1]>, <25, 24, 25, 1, 0, 0, 0, [1, 1, 1, 1]>, <26, 25, 26, 1, 0, 0, 0, [1, 1, 1, 1]>, <27, 26, 27, 1, 0, 0, 0, [1, 1, 1, 1]>, <28, 27, 28, 1, 0, 0, 0, [1, 1, 1, 1]>, <29, 28, 29, 1, 0, 0, 0, [1, 1, 1, 1]>, <30, 29, 30, 1, 0, 0, 0, [1, 1, 1, 1]>, <31, 30, 31, 1, 0, 0, 0, [1, 1, 1, 1]>, <32, 31, 32, 1, 0, 0, 0, [1, 1, 1, 1]>, <33, 32, 33, 1, 0, 0, 0, [1, 1, 1, 1]>, <34, 33, 34, 1, 0, 0, 0, [1, 1, 1, 1]>, <35, 34, 35, 1, 0, 0, 0, [1, 1, 1, 1]>, <36, 0, 19, 19, 1, 0, 0, [1, 1, 0, 0]>, <37, 1, 20, 19, 1, 0, 0, [1, 1, 0, 0]>, <38, 2, 21, 19, 1, 0, 0, [1, 1, 0, 0]>, <39, 3, 22, 19, 1, 0, 0, [1, 1, 0, 0]>, <40, 4, 23, 19, 1, 0, 0, [1, 1, 0, 0]>, <41, 5, 24, 19, 1, 0, 0, [1, 1, 0, 0]>, <42, 6, 25, 19, 1, 0, 0, [1, 1, 0, 0]>, <43, 7, 26, 19, 1, 0, 0, [1, 1, 0, 0]>, <44, 8, 27, 19, 1, 0, 0, [1, 1, 0, 0]>, <45, 9, 28, 19, 1, 0, 0, [1, 1, 0, 0]>, <46, 10, 29, 19, 1, 0, 0, [1, 1, 0, 0]>, <47, 11, 30, 19, 1, 0, 0, [1, 1, 0, 0]>, <48, 12, 31, 19, 1, 0, 0, [1, 1, 0, 0]>, <49, 13, 32, 19, 1, 0, 0, [1, 1, 0, 0]>, <50, 14, 33, 19, 1, 0, 0, [1, 1, 0, 0]>, <51, 15, 34, 19, 1, 0, 0, [1, 1, 0, 0]>, <52, 16, 35, 19, 1, 0, 0, [1, 1, 0, 0]>, <53, 3, 17, 14, 2, 0, 0, [1, 1, 0, 0]>, <54, 4, 18, 14, 2, 0, 0, [1, 1, 0, 0]>, <55, 5, 19, 14, 2, 0, 0, [1, 1, 0, 0]>, <56, 6, 20, 14, 2, 0, 0, [1, 1, 0, 0]>, <57, 12, 26, 14, 2, 0, 0, [1, 1, 0, 0]>, <58, 13, 27, 14, 2, 0, 0, [1, 1, 0, 0]>, <59, 14, 28, 14, 2, 0, 0, [1, 1, 0, 0]>, <60, 15, 29, 14, 2, 0, 0, [1, 1, 0, 0]>, <61, 17, 31, 14, 2, 0, 0, [1, 1, 0, 0]>, <62, 18, 32, 14, 2, 0, 0, [1, 1, 0, 0]>, <63, 19, 33, 14, 2, 0, 0, [1, 1, 0, 0]>, <64, 20, 34, 14, 2, 0, 0, [1, 1, 0, 0]>, <65, 21, 35, 14, 2, 0, 0, [1, 1, 0, 0]>, <66, 0, 18, 18, 3, 0, 1, [0, 1, 1, 0]>, <67, 1, 19, 18, 3, 0, 1, [0, 1, 1, 0]>, <68, 2, 20, 18, 3, 0, 1, [0, 1, 1, 0]>, <69, 3, 21, 18, 3, 0, 1, [0, 1, 1, 0]>, <70, 4, 22, 18, 3, 0, 1, [0, 1, 1, 0]>, <71, 5, 23, 18, 3, 0, 1, [0, 1, 1, 0]>, <72, 6, 24, 18, 3, 0, 1, [0, 1, 1, 0]>, <73, 8, 26, 18, 3, 0, 1, [0, 1, 1, 0]>, <74, 9, 27, 18, 3, 0, 1, [0, 1, 1, 0]>, <75, 10, 28, 18, 3, 0, 1, [0, 1, 1, 0]>, <76, 11, 29, 18, 3, 0, 1, [0, 1, 1, 0]>, <77, 12, 30, 18, 3, 0, 1, [0, 1, 1, 0]>, <78, 13, 31, 18, 3, 0, 1, [0, 1, 1, 0]>, <79, 14, 32, 18, 3, 0, 1, [0, 1, 1, 0]>, <80, 15, 33, 18, 3, 0, 1, [0, 1, 1, 0]>, <81, 16, 34, 18, 3, 0, 1, [0, 1, 1, 0]>, <82, 17, 35, 18, 3, 0, 1, [0, 1, 1, 0]>, <83, 1, 17, 16, 4, 1, 0, [0, 1, 1, 0]>, <84, 2, 18, 16, 4, 1, 0, [0, 1, 1, 0]>, <85, 3, 19, 16, 4, 1, 0, [0, 1, 1, 0]>, <86, 4, 20, 16, 4, 1, 0, [0, 1, 1, 0]>, <87, 5, 21, 16, 4, 1, 0, [0, 1, 1, 0]>, <88, 6, 22, 16, 4, 1, 0, [0, 1, 1, 0]>, <89, 10, 26, 16, 4, 1, 0, [0, 1, 1, 0]>, <90, 11, 27, 16, 4, 1, 0, [0, 1, 1, 0]>, <91, 12, 28, 16, 4, 1, 0, [0, 1, 1, 0]>, <92, 13, 29, 16, 4, 1, 0, [0, 1, 1, 0]>, <93, 14, 30, 16, 4, 1, 0, [0, 1, 1, 0]>, <94, 15, 31, 16, 4, 1, 0, [0, 1, 1, 0]>, <95, 16, 32, 16, 4, 1, 0, [0, 1, 1, 0]>, <96, 17, 33, 16, 4, 1, 0, [0, 1, 1, 0]>, <97, 18, 34, 16, 4, 1, 0, [0, 1, 1, 0]>, <98, 19, 35, 16, 4, 1, 0, [0, 1, 1, 0]>, <99, 0, 17, 17, 5, 0, 0, [1, 1, 0, 0]>, <100, 1, 18, 17, 5, 0, 0, [1, 1, 0, 0]>, <101, 2, 19, 17, 5, 0, 0, [1, 1, 0, 0]>, <102, 3, 20, 17, 5, 0, 0, [1, 1, 0, 0]>, <103, 4, 21, 17, 5, 0, 0, [1, 1, 0, 0]>, <104, 5, 22, 17, 5, 0, 0, [1, 1, 0, 0]>, <105, 6, 23, 17, 5, 0, 0, [1, 1, 0, 0]>, <106, 9, 26, 17, 5, 0, 0, [1, 1, 0, 0]>, <107, 10, 27, 17, 5, 0, 0, [1, 1, 0, 0]>, <108, 11, 28, 17, 5, 0, 0, [1, 1, 0, 0]>, <109, 12, 29, 17, 5, 0, 0, [1, 1, 0, 0]>, <110, 13, 30, 17, 5, 0, 0, [1, 1, 0, 0]>, <111, 14, 31, 17, 5, 0, 0, [1, 1, 0, 0]>, <112, 15, 32, 17, 5, 0, 0, [1, 1, 0, 0]>, <113, 16, 33, 17, 5, 0, 0, [1, 1, 0, 0]>, <114, 17, 34, 17, 5, 0, 0, [1, 1, 0, 0]>, <115, 18, 35, 17, 5, 0, 0, [1, 1, 0, 0]>, <116, 0, 19, 19, 6, 0, 0, [0, 0, 1, 1]>, <117, 1, 20, 19, 6, 0, 0, [0, 0, 1, 1]>, <118, 2, 21, 19, 6, 0, 0, [0, 0, 1, 1]>, <119, 3, 22, 19, 6, 0, 0, [0, 0, 1, 1]>, <120, 4, 23, 19, 6, 0, 0, [0, 0, 1, 1]>, <121, 5, 24, 19, 6, 0, 0, [0, 0, 1, 1]>, <122, 6, 25, 19, 6, 0, 0, [0, 0, 1, 1]>, <123, 7, 26, 19, 6, 0, 0, [0, 0, 1, 1]>, <124, 8, 27, 19, 6, 0, 0, [0, 0, 1, 1]>, <125, 9, 28, 19, 6, 0, 0, [0, 0, 1, 1]>, <126, 10, 29, 19, 6, 0, 0, [0, 0, 1, 1]>, <127, 11, 30, 19, 6, 0, 0, [0, 0, 1, 1]>, <128, 12, 31, 19, 6, 0, 0, [0, 0, 1, 1]>, <129, 13, 32, 19, 6, 0, 0, [0, 0, 1, 1]>, <130, 14, 33, 19, 6, 0, 0, [0, 0, 1, 1]>, <131, 15, 34, 19, 6, 0, 0, [0, 0, 1, 1]>, <132, 16, 35, 19, 6, 0, 0, [0, 0, 1, 1]>, <133, 0, 19, 19, 7, 0, 0, [1, 1, 0, 0]>, <134, 1, 20, 19, 7, 0, 0, [1, 1, 0, 0]>, <135, 2, 21, 19, 7, 0, 0, [1, 1, 0, 0]>, <136, 3, 22, 19, 7, 0, 0, [1, 1, 0, 0]>, <137, 4, 23, 19, 7, 0, 0, [1, 1, 0, 0]>, <138, 5, 24, 19, 7, 0, 0, [1, 1, 0, 0]>, <139, 6, 25, 19, 7, 0, 0, [1, 1, 0, 0]>, <140, 7, 26, 19, 7, 0, 0, [1, 1, 0, 0]>, <141, 8, 27, 19, 7, 0, 0, [1, 1, 0, 0]>, <142, 9, 28, 19, 7, 0, 0, [1, 1, 0, 0]>, <143, 10, 29, 19, 7, 0, 0, [1, 1, 0, 0]>, <144, 11, 30, 19, 7, 0, 0, [1, 1, 0, 0]>, <145, 12, 31, 19, 7, 0, 0, [1, 1, 0, 0]>, <146, 13, 32, 19, 7, 0, 0, [1, 1, 0, 0]>, <147, 14, 33, 19, 7, 0, 0, [1, 1, 0, 0]>, <148, 15, 34, 19, 7, 0, 0, [1, 1, 0, 0]>, <149, 16, 35, 19, 7, 0, 0, [1, 1, 0, 0]>};
